0000000000000000
0000000000000000
0000000000000000
0001110000111000
0000110000111000
0000110000011000
0000111000110000
0000101111100000
0001110111100000
0001100010000000
0001000011000000
0001100001110000
0001110000110000
0000000000000000
0000000000000000
0000000000000000
